p edge 50 490
e 1 4
e 1 12
e 1 14
e 1 15
e 1 18
e 1 21
e 1 25
e 1 27
e 1 29
e 1 31
e 1 32
e 1 33
e 1 34
e 1 35
e 1 36
e 1 37
e 1 38
e 1 39
e 1 45
e 1 46
e 1 47
e 1 48
e 2 6
e 2 7
e 2 10
e 2 11
e 2 14
e 2 15
e 2 18
e 2 19
e 2 25
e 2 26
e 2 27
e 2 28
e 2 31
e 2 33
e 2 34
e 2 35
e 2 37
e 2 38
e 2 41
e 2 43
e 2 45
e 2 46
e 3 5
e 3 8
e 3 9
e 3 10
e 3 25
e 3 27
e 3 31
e 3 34
e 3 36
e 3 39
e 3 40
e 3 43
e 3 44
e 3 45
e 3 46
e 3 48
e 3 50
e 4 9
e 4 10
e 4 18
e 4 23
e 4 26
e 4 28
e 4 30
e 4 33
e 4 34
e 4 41
e 4 43
e 4 44
e 4 45
e 4 46
e 4 49
e 5 6
e 5 9
e 5 12
e 5 15
e 5 16
e 5 19
e 5 20
e 5 22
e 5 24
e 5 28
e 5 29
e 5 30
e 5 32
e 5 36
e 5 37
e 5 38
e 5 44
e 5 45
e 5 47
e 6 7
e 6 8
e 6 10
e 6 13
e 6 15
e 6 20
e 6 22
e 6 29
e 6 31
e 6 32
e 6 34
e 6 36
e 6 37
e 6 40
e 6 41
e 6 44
e 6 47
e 6 49
e 6 50
e 7 8
e 7 10
e 7 12
e 7 13
e 7 14
e 7 17
e 7 19
e 7 28
e 7 36
e 7 38
e 7 40
e 7 43
e 7 44
e 7 45
e 7 48
e 8 11
e 8 14
e 8 19
e 8 21
e 8 22
e 8 24
e 8 27
e 8 33
e 8 34
e 8 36
e 8 45
e 8 50
e 9 11
e 9 17
e 9 19
e 9 25
e 9 29
e 9 36
e 9 42
e 10 11
e 10 14
e 10 17
e 10 18
e 10 19
e 10 22
e 10 27
e 10 28
e 10 31
e 10 32
e 10 34
e 10 37
e 10 38
e 10 40
e 10 41
e 10 44
e 10 46
e 10 48
e 11 15
e 11 16
e 11 18
e 11 20
e 11 25
e 11 26
e 11 27
e 11 29
e 11 31
e 11 33
e 11 34
e 11 35
e 11 39
e 11 47
e 11 48
e 11 49
e 12 15
e 12 18
e 12 19
e 12 23
e 12 25
e 12 26
e 12 29
e 12 33
e 12 34
e 12 35
e 12 40
e 12 44
e 12 47
e 13 15
e 13 17
e 13 18
e 13 19
e 13 21
e 13 22
e 13 24
e 13 26
e 13 29
e 13 33
e 13 34
e 13 37
e 13 40
e 13 45
e 13 47
e 13 48
e 13 50
e 14 19
e 14 26
e 14 31
e 14 32
e 14 33
e 14 37
e 14 38
e 14 40
e 14 41
e 14 42
e 14 44
e 14 45
e 14 49
e 15 16
e 15 17
e 15 19
e 15 22
e 15 24
e 15 25
e 15 29
e 15 30
e 15 31
e 15 33
e 15 34
e 15 39
e 15 41
e 15 42
e 15 43
e 15 45
e 15 46
e 15 48
e 15 49
e 15 50
e 16 21
e 16 23
e 16 28
e 16 30
e 16 31
e 16 33
e 16 34
e 16 36
e 16 37
e 16 38
e 16 40
e 16 45
e 16 46
e 16 47
e 17 23
e 17 27
e 17 28
e 17 29
e 17 32
e 17 33
e 17 34
e 17 36
e 17 37
e 17 44
e 17 48
e 17 49
e 17 50
e 18 20
e 18 21
e 18 22
e 18 25
e 18 26
e 18 27
e 18 31
e 18 33
e 18 35
e 18 36
e 18 37
e 18 38
e 18 39
e 18 42
e 18 43
e 18 44
e 18 45
e 18 46
e 18 47
e 18 48
e 18 49
e 18 50
e 19 22
e 19 23
e 19 26
e 19 28
e 19 33
e 19 36
e 19 40
e 19 45
e 19 46
e 20 21
e 20 22
e 20 24
e 20 28
e 20 30
e 20 31
e 20 32
e 20 35
e 20 40
e 20 41
e 20 45
e 20 46
e 20 49
e 20 50
e 21 22
e 21 24
e 21 25
e 21 26
e 21 30
e 21 32
e 21 33
e 21 36
e 21 41
e 21 43
e 22 24
e 22 26
e 22 29
e 22 32
e 22 33
e 22 34
e 22 36
e 22 38
e 22 40
e 22 46
e 23 26
e 23 33
e 23 34
e 23 36
e 23 38
e 23 40
e 23 45
e 23 46
e 23 48
e 23 49
e 24 25
e 24 27
e 24 29
e 24 31
e 24 32
e 24 36
e 24 37
e 24 39
e 24 40
e 24 42
e 24 43
e 24 46
e 24 48
e 24 49
e 25 26
e 25 29
e 25 33
e 25 35
e 25 36
e 25 40
e 25 44
e 25 49
e 25 50
e 26 27
e 26 32
e 26 34
e 26 38
e 26 41
e 26 46
e 27 30
e 27 31
e 27 36
e 27 37
e 27 39
e 27 40
e 27 45
e 27 47
e 27 49
e 27 50
e 28 29
e 28 30
e 28 31
e 28 32
e 28 34
e 28 35
e 28 37
e 28 38
e 28 44
e 28 46
e 28 49
e 29 30
e 29 31
e 29 32
e 29 37
e 29 40
e 29 41
e 29 43
e 29 45
e 29 49
e 29 50
e 30 33
e 30 34
e 30 36
e 30 39
e 30 41
e 30 44
e 30 46
e 30 48
e 30 49
e 31 33
e 31 34
e 31 35
e 31 42
e 31 43
e 31 45
e 31 46
e 31 47
e 31 48
e 31 50
e 32 35
e 32 37
e 32 38
e 32 42
e 32 44
e 32 46
e 32 48
e 33 34
e 33 35
e 33 36
e 33 41
e 33 44
e 33 48
e 33 49
e 34 38
e 34 40
e 34 41
e 34 42
e 34 44
e 34 47
e 34 49
e 34 50
e 35 38
e 35 39
e 35 40
e 35 47
e 35 49
e 36 39
e 36 42
e 36 46
e 36 50
e 37 38
e 37 39
e 37 40
e 37 45
e 37 47
e 37 48
e 37 50
e 38 42
e 38 48
e 38 50
e 39 40
e 39 46
e 39 49
e 39 50
e 40 41
e 40 48
e 40 49
e 41 45
e 41 47
e 41 48
e 41 49
e 42 43
e 42 45
e 42 46
e 42 49
e 42 50
e 44 45
e 44 48
e 45 48
e 45 49
e 45 50
e 47 49
e 48 50
